CMD:
./solvers/bin/cadical --plain --no-reduce -t 1600 ./data/cnfs//nusmvtcasp3/nusmvtcasp3.97.cnf

c --- [ banner ] -------------------------------------------------------------
c 
c CaDiCaL SAT Solver
c Copyright (c) 2016-2024
c A. Biere, M. Fleury, N. Froleyks, K. Fazekas, F. Pollitt, T. Faller
c JKU Linz, University of Freiburg, TU Wien
c 
c Version 2.1.3 5296d3d2a9bf48c154ab2acb5e44625776d821bf
c g++ (Gentoo 12.3.1_p20230526 p2) 12.3.1 20230526 -Wall -Wextra -O3 -DNDEBUG
c Sat Aug 9 07:26:21 PDT 2025 Linux cedar2.int.cedar.computecanada.ca 5.14.0-362.24.2.el9_3.x86_64 x86_64
c 
c --- [ limit ] --------------------------------------------------------------
c 
c setting time limit to 1600 seconds real time (due to '-t 1600')
c 
c --- [ parsing input ] ------------------------------------------------------
c 
c reading DIMACS file from './data/cnfs//nusmvtcasp3/nusmvtcasp3.97.cnf'
c opening file to read './data/cnfs//nusmvtcasp3/nusmvtcasp3.97.cnf'
c found 'p cnf 274946 781331' header
c parsed 781331 clauses in 0.13 seconds process time
c 
c --- [ options ] ------------------------------------------------------------
c 
c   --compact=false                (different from default 'true')
c   --decompose=false              (different from default 'true')
c   --deduplicate=false            (different from default 'true')
c   --elim=false                   (different from default 'true')
c   --probe=false                  (different from default 'true')
c   --reduce=false                 (different from default 'true')
c   --subsume=false                (different from default 'true')
c   --ternary=false                (different from default 'true')
c   --transred=false               (different from default 'true')
c   --vivify=false                 (different from default 'true')
c 
c --- [ solving ] ------------------------------------------------------------
c 
c time measured in process time since initialization
c 
c  seconds   reductions  redundant  irredundant
c          MB    restarts       trail       variables
c           level   conflicts       glue          remaining
c 
c *  0.13 129  0 0   0    0    0  0% 0 770154 229068 83%
c {  0.13 130  0 0   0    0    0  0% 0 770154 229068 83%
c i  0.13 130 128 0   0    9    8 18% 2 770154 227205 83%
c i  0.13 130 125 0   0   12    8 18% 1 770154 227132 83%
c i  0.17 130 212 0  31  281  246 21% 17 770154 226805 82%
c i  0.17 130 215 0  31  282  246 21% 17 770154 226802 82%
c i  0.17 130 218 0  31  283  246 21% 17 770154 226799 82%
c i  0.17 130 233 0  31  288  249 21% 17 770154 226796 82%
c i  0.17 130 236 0  31  289  249 21% 17 770154 226793 82%
c i  0.17 130 239 0  31  290  249 21% 17 770154 226790 82%
c i  0.17 130 243 0  31  291  249 21% 17 770154 226787 82%
c i  0.18 130 346 0  31  339  295 22% 14 770154 226780 82%
c i  0.18 130 348 0  31  340  295 22% 14 770154 226777 82%
c i  0.18 130 364 0  31  346  300 22% 14 770154 226774 82%
c i  0.18 130 369 0  31  348  301 22% 14 770154 226771 82%
c i  0.19 130 481 0  31  412  360 23% 12 770154 226567 82%
c i  0.19 130 557 0  31  526  461 23% 10 770154 226474 82%
c i  0.19 130 557 0  31  533  465 23% 10 770154 226050 82%
c i  0.19 130 555 0  31  682  589 23% 9 770154 225955 82%
c i  0.19 130 555 0  31  693  593 23% 8 770154 224979 82%
c 
c  seconds    reductions  redundant  irredundant
c          MB     restarts       trail       variables
c            level   conflicts       glue          remaining
c 
c i  0.19 130 554 0  31  699  595 23% 8 770154 224750 82%
c i  0.20 131 542 0  31  730  623 23% 8 770154 224430 82%
c }  0.21 131 510 0  31  779  667 23% 8 770154 224270 82%
c 0  0.21 131 510 0  31  779  667 23% 8 770154 224270 82%
c 
c --- [ result ] -------------------------------------------------------------
c 
s UNSATISFIABLE
c 
c --- [ run-time profiling ] -------------------------------------------------
c 
c process time taken by individual solving procedures
c (percentage relative to process time for solving)
c 
c         0.13  155.80% parse
c         0.08   99.85% search
c         0.08   97.21% unstable
c         0.00    2.56% lucky
c         0.00    0.00% simplify
c   =================================
c         0.08   38.98% solve
c 
c last line shows process time for solving
c (percentage relative to total process time)
c 
c --- [ statistics ] ---------------------------------------------------------
c 
c chronological:               548        70.35 %  of conflicts
c conflicts:                   779      9591.23    per second
c decisions:                  6843     84252.65    per second
c fixed:                     50670        18.43 %  of all variables
c learned:                     715        91.78 %  per conflict
c learned_lits:              11661       100.00 %  learned literals
c minimized:                     0         0.00 %  learned literals
c shrunken:                   4485        38.46 %  learned literals
c minishrunken:                397         3.40 %  learned literals
c otfs:                          6         0.77 %  of conflict
c propagations:            1094185        13.47 M  per second
c restarts:                     31        25.13    interval
c subsumed:                     22         0.00 %  of all clauses
c strengthened:                  6         0.00 %  of all clauses
c 
c seconds are measured in process time for solving
c 
c --- [ resources ] ----------------------------------------------------------
c 
c total process time since initialization:         0.21    seconds
c total real time since initialization:            0.21    seconds
c maximum resident set size of process:          130.06    MB
c 
c --- [ shutting down ] ------------------------------------------------------
c 
c exit 20
